RT is False
Default write of storage_offers_DA.csv just to have a file (but constraint should be inactive)
Reading model...
...model read.
creating competitive generators file...
...competitive generators recorded.
Loading data...
.. day-ahead data with real-time VRE data read.
Compiling instance...
...instance created.
Creating Offer Mitigation (model will solve as dispatch if TRUE)...
NOTE: storage offers will not be mitigated
...storage offer mitigation file created
Converting model to MPEC...
...converted
NOTE: initial MIP solve with only storage competitive to get feasible solution
Solving...

Welcome to IBM(R) ILOG(R) CPLEX(R) Interactive Optimizer 12.9.0.0
  with Simplex, Mixed Integer & Barrier Optimizers
5725-A06 5725-A29 5724-Y48 5724-Y49 5724-Y54 5724-Y55 5655-Y21
Copyright IBM Corp. 1988, 2019.  All Rights Reserved.

Type 'help' for a list of available commands.
Type 'help' followed by a command name for more
information on commands.

CPLEX> Logfile 'cplex.log' closed.
Logfile 'C:\Users\llavin\Desktop\test826\logs\tmpsqvu2qzb.cplex.log' open.
CPLEX> New value for parallel optimization mode: -1
CPLEX> New value for emphasis for MIP optimization: 1
CPLEX> New value for mixed integer optimality gap tolerance: 0.01
CPLEX> New value for integrality tolerance: 1e-12
CPLEX> New value for deterministic time limit in ticks: 75000
CPLEX> Problem 'C:\Users\llavin\Desktop\test826\logs\tmpbhtbfgnq.pyomo.lp' read.
Read time = 0.22 sec. (13.92 ticks)
CPLEX> Problem name         : C:\Users\llavin\Desktop\test826\logs\tmpbhtbfgnq.pyomo.lp
Objective sense      : Maximize
Variables            :   53809  [Nneg: 1,  Box: 22004,  Free: 4464,
                                 Binary: 27340]
Objective nonzeros   :    8980
Linear constraints   :  123253  [Less: 41346,  Greater: 59096,  Equal: 22811]
  Nonzeros           :  293289
  RHS nonzeros       :   67491

Variables            : Min LB: -5000.000        Max UB: 1000000.       
Objective nonzeros   : Min   : 0.008333333      Max   : 722.0000       
Linear constraints   :
  Nonzeros           : Min   : 0.008333333      Max   : 1000000.       
  RHS nonzeros       : Min   : 0.008333333      Max   : 1000000.       
CPLEX> CPXPARAM_Parallel                                -1
CPXPARAM_Emphasis_MIP                            1
CPXPARAM_DetTimeLimit                            75000
CPXPARAM_MIP_Tolerances_MIPGap                   0.01
CPXPARAM_MIP_Tolerances_Integrality              9.9999999999999998e-13
Tried aggregator 4 times.
MIP Presolve eliminated 88673 rows and 18929 columns.
MIP Presolve added 3402 rows and 0 columns.
MIP Presolve modified 24854 coefficients.
Aggregator did 13008 substitutions.
Reduced MIP has 24974 rows, 21316 columns, and 71249 nonzeros.
Reduced MIP has 8417 binaries, 0 generals, 0 SOSs, and 0 indicators.
Presolve time = 0.34 sec. (193.76 ticks)
Probing fixed 397 vars, tightened 4244 bounds.
Probing time = 0.06 sec. (19.33 ticks)
Tried aggregator 2 times.
MIP Presolve eliminated 895 rows and 796 columns.
MIP Presolve modified 3036 coefficients.
Aggregator did 35 substitutions.
Reduced MIP has 24044 rows, 20485 columns, and 68558 nonzeros.
Reduced MIP has 8019 binaries, 0 generals, 0 SOSs, and 0 indicators.
Presolve time = 0.11 sec. (87.80 ticks)
Probing fixed 0 vars, tightened 319 bounds.
Probing time = 0.14 sec. (23.10 ticks)
Clique table members: 44344.
MIP emphasis: integer feasibility.
MIP search method: dynamic search.
Parallel mode: opportunistic, using up to 32 threads.
Root relaxation solution time = 0.42 sec. (625.76 ticks)

        Nodes                                         Cuts/
   Node  Left     Objective  IInf  Best Integer    Best Bound    ItCnt     Gap

      0     0     7891.3473   143                   7891.3473     5504         
      0     0     7891.1347    12                    Cuts: 25     5515         
      0     0     7890.8519    11                     Cuts: 5     5520         
      0     9    infeasible                         7887.8384     5561         
Elapsed time = 3.00 sec. (1570.32 ticks, tree = 0.02 MB, solutions = 0)
*    34+   37                         7670.1039     7851.9490             2.37%
*   169    40      integral     0     7818.8577     7837.1543     5916    0.23%
*   211    46      integral     0     7819.6274     7837.1543     5969    0.22%
*   318    56      integral     0     7821.2961     7837.1543     6260    0.20%

Clique cuts applied:  1
Cover cuts applied:  3
Implied bound cuts applied:  4
Flow cuts applied:  13
Gomory fractional cuts applied:  2

Root node processing (before b&c):
  Real time             =    2.25 sec. (1569.16 ticks)
Parallel b&c, 32 threads:
  Real time             =    2.22 sec. (260.92 ticks)
  Sync time (average)   =    0.67 sec.
  Wait time (average)   =    0.00 sec.
                          ------------
Total (root+branch&cut) =    4.47 sec. (1830.08 ticks)

Solution pool: 15 solutions saved.

MIP - Integer optimal, tolerance (0.01/1e-06):  Objective =  7.8212961143e+03
Current MIP best bound =  7.8254202894e+03 (gap = 4.12418, 0.05%)
Solution time =    4.50 sec.  Iterations = 6933  Nodes = 319 (25)
Deterministic time = 1830.24 ticks  (406.72 ticks/sec)

CPLEX> Incumbent solution written to file 'C:\Users\llavin\Desktop\test826\logs\tmpfjxp561q.cplex.sol'.
CPLEX> NOTE: no warmstart specified for MIP iteration, default behavior is true
NOTE: resolving with all competitive generators using storage-only solution to warmstart
Solving...

Welcome to IBM(R) ILOG(R) CPLEX(R) Interactive Optimizer 12.9.0.0
  with Simplex, Mixed Integer & Barrier Optimizers
5725-A06 5725-A29 5724-Y48 5724-Y49 5724-Y54 5724-Y55 5655-Y21
Copyright IBM Corp. 1988, 2019.  All Rights Reserved.

Type 'help' for a list of available commands.
Type 'help' followed by a command name for more
information on commands.

CPLEX> Logfile 'cplex.log' closed.
Logfile 'C:\Users\llavin\Desktop\test826\logs\tmpgrnsp2kp.cplex.log' open.
CPLEX> New value for parallel optimization mode: -1
CPLEX> New value for emphasis for MIP optimization: 1
CPLEX> New value for mixed integer optimality gap tolerance: 0.01
CPLEX> New value for integrality tolerance: 1e-12
CPLEX> New value for deterministic time limit in ticks: 75000
CPLEX> Problem 'C:\Users\llavin\Desktop\test826\logs\tmp6cmwdgrb.pyomo.lp' read.
Read time = 0.23 sec. (13.94 ticks)
CPLEX> MIP start file 'C:\Users\llavin\Desktop\test826\logs\tmp1ma1gbnl.cplex.mst' read.
CPLEX> Problem name         : C:\Users\llavin\Desktop\test826\logs\tmp6cmwdgrb.pyomo.lp
Objective sense      : Maximize
Variables            :   54529  [Nneg: 1,  Box: 22724,  Free: 4464,
                                 Binary: 27340]
Objective nonzeros   :    9676
Linear constraints   :  123253  [Less: 41346,  Greater: 59096,  Equal: 22811]
  Nonzeros           :  293289
  RHS nonzeros       :   67491

Variables            : Min LB: -5000.000        Max UB: 1000000.       
Objective nonzeros   : Min   : 0.008333333      Max   : 722.0000       
Linear constraints   :
  Nonzeros           : Min   : 0.008333333      Max   : 1000000.       
  RHS nonzeros       : Min   : 0.008333333      Max   : 1000000.       
CPLEX> CPXPARAM_Parallel                                -1
CPXPARAM_Emphasis_MIP                            1
CPXPARAM_DetTimeLimit                            75000
CPXPARAM_MIP_Tolerances_MIPGap                   0.01
CPXPARAM_MIP_Tolerances_Integrality              9.9999999999999998e-13
Warning:  No solution found from 1 MIP starts.
Retaining values of one MIP start for possible repair.
Tried aggregator 4 times.
MIP Presolve eliminated 88673 rows and 19649 columns.
MIP Presolve added 3402 rows and 0 columns.
MIP Presolve modified 24854 coefficients.
Aggregator did 13008 substitutions.
Reduced MIP has 24974 rows, 21316 columns, and 71249 nonzeros.
Reduced MIP has 8417 binaries, 0 generals, 0 SOSs, and 0 indicators.
Presolve time = 0.33 sec. (194.17 ticks)
Probing fixed 397 vars, tightened 4244 bounds.
Probing time = 0.08 sec. (19.33 ticks)
Tried aggregator 2 times.
MIP Presolve eliminated 895 rows and 796 columns.
MIP Presolve modified 3036 coefficients.
Aggregator did 35 substitutions.
Reduced MIP has 24044 rows, 20485 columns, and 68558 nonzeros.
Reduced MIP has 8019 binaries, 0 generals, 0 SOSs, and 0 indicators.
Presolve time = 0.11 sec. (87.81 ticks)
Probing fixed 0 vars, tightened 319 bounds.
Probing time = 0.14 sec. (23.10 ticks)
Clique table members: 44344.
MIP emphasis: integer feasibility.
MIP search method: dynamic search.
Parallel mode: opportunistic, using up to 32 threads.
Root relaxation solution time = 0.47 sec. (688.86 ticks)

        Nodes                                         Cuts/
   Node  Left     Objective  IInf  Best Integer    Best Bound    ItCnt     Gap

      0     0    65730.2237   199                  65730.2237     6129         
      0     0    63782.9449    98                   Cuts: 113     6238         
      0     0    63519.9434    99                    Cuts: 25     6270         
      0     0    63488.7345    87                     Cuts: 9     6280         
Repair heuristic found nothing.
      0     3    61429.2082    91                    Cuts: 11     6289         
Elapsed time = 4.03 sec. (1848.07 ticks, tree = 0.02 MB, solutions = 0)
    715   551    47839.9605    37                  62170.7467     9619         
   1176   982    37300.4553    65                  62170.7467    13593         
   1874  1459    30996.1970    25                  62170.7467    24354         
   2548  1860    55091.0806    66                  62170.7467    32486         
   3080  2087    40756.2312    19                  62170.7467    37255         
*  3187+ 1327                        41051.8476    62170.7467            51.44%
   3910  1259    55363.0314    50    41051.8476    62170.7467    52273   51.44%
   4811  1484    45579.7379    32    41051.8476    62170.7467    59423   51.44%
   5609  2094    43132.9633    45    41051.8476    62170.7467    66310   51.44%
   8600  3254        cutoff          41051.8476    60387.3911    82002   47.10%
Elapsed time = 18.94 sec. (4760.45 ticks, tree = 21.86 MB, solutions = 1)
   8791  3983        cutoff          41051.8476    60387.3911    97813   47.10%
  10945   827    42245.0008    51    41051.8476    60387.3911   111083   47.10%
* 12756   949      integral     0    41127.4215    60387.3911   113317   46.83%
  13994   912    42249.0519    14    41128.1646    60387.3911   111933   46.83%
* 16536  1814      integral     0    41130.3182    60387.3911   122916   46.82%
  18922  1970    41891.5159    31    41130.3182    60387.3911   125447   46.82%
  22607  3770    infeasible          41131.6747    56620.3433   142902   37.66%
  23432  5207    41159.2687    16    41137.3615    55231.0085   165810   34.26%
  27020  5290    41163.2116    14    41137.3615    55231.0085   166918   34.26%
  31602  7418    41968.5257    29    41137.3615    54815.2116   176207   33.25%
  35990 10662    41159.2687    17    41137.3615    54253.2275   205400   31.88%
  40145 11799        cutoff          41137.3615    52150.4854   221797   26.77%
Elapsed time = 64.64 sec. (16015.63 ticks, tree = 90.51 MB, solutions = 28)
  41877 12227        cutoff          41137.3615    52150.4854   229922   26.77%
  43004 13249        cutoff          41137.3615    52150.4854   250969   26.77%
  46848 14091    41137.9896    16    41137.3615    51617.8198   257421   25.48%
  51225 15025    42249.0519     7    41137.3615    49697.0304   267389   20.81%
  55812 15169    41245.2210    23    41137.3615    49649.6906   268519   20.69%
  60265 16831    45172.0868    18    41137.3615    49649.6906   283335   20.69%
  64449 19889    42369.3041    41    41137.3615    49649.6906   325705   20.69%
  68894 20885    41139.8741    18    41137.3615    46881.2332   338978   13.96%
  73689 26087    infeasible          41137.3615    46778.0083   372706   13.71%
  76807 25886    41174.9211    18    41137.3615    46564.8433   370336   13.19%
Elapsed time = 107.58 sec. (25555.80 ticks, tree = 212.76 MB, solutions = 28)
  78971 24939    41139.8741    20    41137.3615    42920.3607   363931    4.33%
  79777 28121    41139.8741    17    41137.3615    42920.3607   383059    4.33%
  80387 28037    41209.5458    18    41137.3615    42920.3607   381928    4.33%
  80882 28231    41138.6178    15    41137.3615    42920.3607   383901    4.33%

Cover cuts applied:  6
Implied bound cuts applied:  27
Flow cuts applied:  70
Mixed integer rounding cuts applied:  9
Gomory fractional cuts applied:  7

Root node processing (before b&c):
  Real time             =    2.73 sec. (1830.01 ticks)
Parallel b&c, 32 threads:
  Real time             =  108.95 sec. (27702.63 ticks)
  Sync time (average)   =    4.00 sec.
  Wait time (average)   =    0.25 sec.
                          ------------
Total (root+branch&cut) =  111.69 sec. (29532.64 ticks)

Solution pool: 28 solutions saved.

MIP - Integer optimal, tolerance (0.01/1e-06):  Objective =  4.1137361455e+04
Current MIP best bound =  4.1545421180e+04 (gap = 408.06, 0.99%)
Solution time =  111.69 sec.  Iterations = 389639  Nodes = 80914 (29612)
Deterministic time = 29532.80 ticks  (264.42 ticks/sec)

CPLEX> Incumbent solution written to file 'C:\Users\llavin\Desktop\test826\logs\tmpm7urdwsr.cplex.sol'.
CPLEX> Exporting results... 
